32	0

0	1	2
1	2	3	4
8	1	5
8	1	5
6	1	6
3	1	7
8	1	8
3	1	9
8	1	10
2	2	11	12
9	2	13	15
9	2	13	15
8	1	14
9	1	16
9	1	16
3	1	17
10	1	18
6	1	19
5	2	20	21
5	1	22
8	1	22
6	1	23
8	1	24
10	1	25
4	1	26
9	1	27
7	1	28
1	1	29
7	1	30
2	1	31
7	1	32
0	0
